language ESSENCE' 1.0
$ Minion SolverNodes: 82
$ Minion SolverTotalTime: 0.055045
$ Minion SolverTimeOut: 0
$ Savile Row TotalTime: 0.492
letting actionFrom be [5, 6, 5, 4, 2, 2]
letting actionTo be [2, 3, 4, 1, 1, 1]
letting actionValue be [5, 6, 44, 44, 5, 6]
letting states be [[50, 9, 45, 18, 5, 44, 6], 
[50, 5, 45, 18, 44, 6, -1], 
[50, 5, 6, 18, 44, -1, -1], 
[50, 5, 6, 44, -1, -1, -1], 
[44, 5, 6, -1, -1, -1, -1], 
[5, 6, -1, -1, -1, -1, -1], 
[6, -1, -1, -1, -1, -1, -1]]
